<?xml version="1.0" encoding="UTF-8"?><osil xmlns="os.optimizationservices.org"   xmlns:xsi="http://www.w3.org/2001/XMLSchema-instance" xsi:schemaLocation="os.optimizationservices.org http://www.optimizationservices.org/schemas/2.0/OSiL.xsd" ><instanceHeader><description>Generated from GAMS GMO problem</description></instanceHeader><instanceData><variables numberOfVariables="204"><var name="zRouteDemand(1)"/><var name="zRouteDemand(2)"/><var name="zRouteDistance(1)"/><var name="zRouteDistance(2)"/><var name="x(1,1,2)" type="B" ub="1"/><var name="x(1,1,3)" type="B" ub="1"/><var name="x(1,1,4)" type="B" ub="1"/><var name="x(1,1,5)" type="B" ub="1"/><var name="x(1,1,6)" type="B" ub="1"/><var name="x(1,1,7)" type="B" ub="1"/><var name="x(1,1,8)" type="B" ub="1"/><var name="x(1,1,9)" type="B" ub="1"/><var name="x(1,1,10)" type="B" ub="1"/><var name="x(1,2,1)" type="B" ub="1"/><var name="x(1,2,3)" type="B" ub="1"/><var name="x(1,2,4)" type="B" ub="1"/><var name="x(1,2,5)" type="B" ub="1"/><var name="x(1,2,6)" type="B" ub="1"/><var name="x(1,2,7)" type="B" ub="1"/><var name="x(1,2,8)" type="B" ub="1"/><var name="x(1,2,9)" type="B" ub="1"/><var name="x(1,2,10)" type="B" ub="1"/><var name="x(1,3,1)" type="B" ub="1"/><var name="x(1,3,2)" type="B" ub="1"/><var name="x(1,3,4)" type="B" ub="1"/><var name="x(1,3,5)" type="B" ub="1"/><var name="x(1,3,6)" type="B" ub="1"/><var name="x(1,3,7)" type="B" ub="1"/><var name="x(1,3,8)" type="B" ub="1"/><var name="x(1,3,9)" type="B" ub="1"/><var name="x(1,3,10)" type="B" ub="1"/><var name="x(1,4,1)" type="B" ub="1"/><var name="x(1,4,2)" type="B" ub="1"/><var name="x(1,4,3)" type="B" ub="1"/><var name="x(1,4,5)" type="B" ub="1"/><var name="x(1,4,6)" type="B" ub="1"/><var name="x(1,4,7)" type="B" ub="1"/><var name="x(1,4,8)" type="B" ub="1"/><var name="x(1,4,9)" type="B" ub="1"/><var name="x(1,4,10)" type="B" ub="1"/><var name="x(1,5,1)" type="B" ub="1"/><var name="x(1,5,2)" type="B" ub="1"/><var name="x(1,5,3)" type="B" ub="1"/><var name="x(1,5,4)" type="B" ub="1"/><var name="x(1,5,6)" type="B" ub="1"/><var name="x(1,5,7)" type="B" ub="1"/><var name="x(1,5,8)" type="B" ub="1"/><var name="x(1,5,9)" type="B" ub="1"/><var name="x(1,5,10)" type="B" ub="1"/><var name="x(1,6,1)" type="B" ub="1"/><var name="x(1,6,2)" type="B" ub="1"/><var name="x(1,6,3)" type="B" ub="1"/><var name="x(1,6,4)" type="B" ub="1"/><var name="x(1,6,5)" type="B" ub="1"/><var name="x(1,6,7)" type="B" ub="1"/><var name="x(1,6,8)" type="B" ub="1"/><var name="x(1,6,9)" type="B" ub="1"/><var name="x(1,6,10)" type="B" ub="1"/><var name="x(1,7,1)" type="B" ub="1"/><var name="x(1,7,2)" type="B" ub="1"/><var name="x(1,7,3)" type="B" ub="1"/><var name="x(1,7,4)" type="B" ub="1"/><var name="x(1,7,5)" type="B" ub="1"/><var name="x(1,7,6)" type="B" ub="1"/><var name="x(1,7,8)" type="B" ub="1"/><var name="x(1,7,9)" type="B" ub="1"/><var name="x(1,7,10)" type="B" ub="1"/><var name="x(1,8,1)" type="B" ub="1"/><var name="x(1,8,2)" type="B" ub="1"/><var name="x(1,8,3)" type="B" ub="1"/><var name="x(1,8,4)" type="B" ub="1"/><var name="x(1,8,5)" type="B" ub="1"/><var name="x(1,8,6)" type="B" ub="1"/><var name="x(1,8,7)" type="B" ub="1"/><var name="x(1,8,9)" type="B" ub="1"/><var name="x(1,8,10)" type="B" ub="1"/><var name="x(1,9,1)" type="B" ub="1"/><var name="x(1,9,2)" type="B" ub="1"/><var name="x(1,9,3)" type="B" ub="1"/><var name="x(1,9,4)" type="B" ub="1"/><var name="x(1,9,5)" type="B" ub="1"/><var name="x(1,9,6)" type="B" ub="1"/><var name="x(1,9,7)" type="B" ub="1"/><var name="x(1,9,8)" type="B" ub="1"/><var name="x(1,9,10)" type="B" ub="1"/><var name="x(1,10,1)" type="B" ub="1"/><var name="x(1,10,2)" type="B" ub="1"/><var name="x(1,10,3)" type="B" ub="1"/><var name="x(1,10,4)" type="B" ub="1"/><var name="x(1,10,5)" type="B" ub="1"/><var name="x(1,10,6)" type="B" ub="1"/><var name="x(1,10,7)" type="B" ub="1"/><var name="x(1,10,8)" type="B" ub="1"/><var name="x(1,10,9)" type="B" ub="1"/><var name="x(2,1,2)" type="B" ub="1"/><var name="x(2,1,3)" type="B" ub="1"/><var name="x(2,1,4)" type="B" ub="1"/><var name="x(2,1,5)" type="B" ub="1"/><var name="x(2,1,6)" type="B" ub="1"/><var name="x(2,1,7)" type="B" ub="1"/><var name="x(2,1,8)" type="B" ub="1"/><var name="x(2,1,9)" type="B" ub="1"/><var name="x(2,1,10)" type="B" ub="1"/><var name="x(2,2,1)" type="B" ub="1"/><var name="x(2,2,3)" type="B" ub="1"/><var name="x(2,2,4)" type="B" ub="1"/><var name="x(2,2,5)" type="B" ub="1"/><var name="x(2,2,6)" type="B" ub="1"/><var name="x(2,2,7)" type="B" ub="1"/><var name="x(2,2,8)" type="B" ub="1"/><var name="x(2,2,9)" type="B" ub="1"/><var name="x(2,2,10)" type="B" ub="1"/><var name="x(2,3,1)" type="B" ub="1"/><var name="x(2,3,2)" type="B" ub="1"/><var name="x(2,3,4)" type="B" ub="1"/><var name="x(2,3,5)" type="B" ub="1"/><var name="x(2,3,6)" type="B" ub="1"/><var name="x(2,3,7)" type="B" ub="1"/><var name="x(2,3,8)" type="B" ub="1"/><var name="x(2,3,9)" type="B" ub="1"/><var name="x(2,3,10)" type="B" ub="1"/><var name="x(2,4,1)" type="B" ub="1"/><var name="x(2,4,2)" type="B" ub="1"/><var name="x(2,4,3)" type="B" ub="1"/><var name="x(2,4,5)" type="B" ub="1"/><var name="x(2,4,6)" type="B" ub="1"/><var name="x(2,4,7)" type="B" ub="1"/><var name="x(2,4,8)" type="B" ub="1"/><var name="x(2,4,9)" type="B" ub="1"/><var name="x(2,4,10)" type="B" ub="1"/><var name="x(2,5,1)" type="B" ub="1"/><var name="x(2,5,2)" type="B" ub="1"/><var name="x(2,5,3)" type="B" ub="1"/><var name="x(2,5,4)" type="B" ub="1"/><var name="x(2,5,6)" type="B" ub="1"/><var name="x(2,5,7)" type="B" ub="1"/><var name="x(2,5,8)" type="B" ub="1"/><var name="x(2,5,9)" type="B" ub="1"/><var name="x(2,5,10)" type="B" ub="1"/><var name="x(2,6,1)" type="B" ub="1"/><var name="x(2,6,2)" type="B" ub="1"/><var name="x(2,6,3)" type="B" ub="1"/><var name="x(2,6,4)" type="B" ub="1"/><var name="x(2,6,5)" type="B" ub="1"/><var name="x(2,6,7)" type="B" ub="1"/><var name="x(2,6,8)" type="B" ub="1"/><var name="x(2,6,9)" type="B" ub="1"/><var name="x(2,6,10)" type="B" ub="1"/><var name="x(2,7,1)" type="B" ub="1"/><var name="x(2,7,2)" type="B" ub="1"/><var name="x(2,7,3)" type="B" ub="1"/><var name="x(2,7,4)" type="B" ub="1"/><var name="x(2,7,5)" type="B" ub="1"/><var name="x(2,7,6)" type="B" ub="1"/><var name="x(2,7,8)" type="B" ub="1"/><var name="x(2,7,9)" type="B" ub="1"/><var name="x(2,7,10)" type="B" ub="1"/><var name="x(2,8,1)" type="B" ub="1"/><var name="x(2,8,2)" type="B" ub="1"/><var name="x(2,8,3)" type="B" ub="1"/><var name="x(2,8,4)" type="B" ub="1"/><var name="x(2,8,5)" type="B" ub="1"/><var name="x(2,8,6)" type="B" ub="1"/><var name="x(2,8,7)" type="B" ub="1"/><var name="x(2,8,9)" type="B" ub="1"/><var name="x(2,8,10)" type="B" ub="1"/><var name="x(2,9,1)" type="B" ub="1"/><var name="x(2,9,2)" type="B" ub="1"/><var name="x(2,9,3)" type="B" ub="1"/><var name="x(2,9,4)" type="B" ub="1"/><var name="x(2,9,5)" type="B" ub="1"/><var name="x(2,9,6)" type="B" ub="1"/><var name="x(2,9,7)" type="B" ub="1"/><var name="x(2,9,8)" type="B" ub="1"/><var name="x(2,9,10)" type="B" ub="1"/><var name="x(2,10,1)" type="B" ub="1"/><var name="x(2,10,2)" type="B" ub="1"/><var name="x(2,10,3)" type="B" ub="1"/><var name="x(2,10,4)" type="B" ub="1"/><var name="x(2,10,5)" type="B" ub="1"/><var name="x(2,10,6)" type="B" ub="1"/><var name="x(2,10,7)" type="B" ub="1"/><var name="x(2,10,8)" type="B" ub="1"/><var name="x(2,10,9)" type="B" ub="1"/><var name="z(1,1)" type="B" ub="1"/><var name="z(1,2)" type="B" ub="1"/><var name="z(1,3)" type="B" ub="1"/><var name="z(1,4)" type="B" ub="1"/><var name="z(1,5)" type="B" ub="1"/><var name="z(1,6)" type="B" ub="1"/><var name="z(1,7)" type="B" ub="1"/><var name="z(1,8)" type="B" ub="1"/><var name="z(1,9)" type="B" ub="1"/><var name="z(1,10)" type="B" ub="1"/><var name="z(2,1)" type="B" ub="1"/><var name="z(2,2)" type="B" ub="1"/><var name="z(2,3)" type="B" ub="1"/><var name="z(2,4)" type="B" ub="1"/><var name="z(2,5)" type="B" ub="1"/><var name="z(2,6)" type="B" ub="1"/><var name="z(2,7)" type="B" ub="1"/><var name="z(2,8)" type="B" ub="1"/><var name="z(2,9)" type="B" ub="1"/><var name="z(2,10)" type="B" ub="1"/></variables><objectives numberOfObjectives="1"><obj maxOrMin="min" name="objective" numberOfObjCoef="180"><coef idx="4">17</coef><coef idx="5">18</coef><coef idx="6">11</coef><coef idx="7">15</coef><coef idx="8">13</coef><coef idx="9">20</coef><coef idx="10">12</coef><coef idx="11">12</coef><coef idx="12">16</coef><coef idx="13">10</coef><coef idx="14">20</coef><coef idx="15">11</coef><coef idx="16">19</coef><coef idx="17">18</coef><coef idx="18">14</coef><coef idx="19">11</coef><coef idx="20">14</coef><coef idx="21">20</coef><coef idx="22">12</coef><coef idx="23">11</coef><coef idx="24">13</coef><coef idx="25">14</coef><coef idx="26">16</coef><coef idx="27">16</coef><coef idx="28">19</coef><coef idx="29">11</coef><coef idx="30">20</coef><coef idx="31">20</coef><coef idx="32">11</coef><coef idx="33">13</coef><coef idx="34">19</coef><coef idx="35">13</coef><coef idx="36">15</coef><coef idx="37">15</coef><coef idx="38">16</coef><coef idx="39">18</coef><coef idx="40">11</coef><coef idx="41">14</coef><coef idx="42">11</coef><coef idx="43">10</coef><coef idx="44">17</coef><coef idx="45">20</coef><coef idx="46">19</coef><coef idx="47">10</coef><coef idx="48">19</coef><coef idx="49">13</coef><coef idx="50">19</coef><coef idx="51">18</coef><coef idx="52">11</coef><coef idx="53">19</coef><coef idx="54">18</coef><coef idx="55">18</coef><coef idx="56">11</coef><coef idx="57">18</coef><coef idx="58">16</coef><coef idx="59">18</coef><coef idx="60">16</coef><coef idx="61">14</coef><coef idx="62">16</coef><coef idx="63">16</coef><coef idx="64">20</coef><coef idx="65">17</coef><coef idx="66">11</coef><coef idx="67">14</coef><coef idx="68">20</coef><coef idx="69">19</coef><coef idx="70">18</coef><coef idx="71">18</coef><coef idx="72">18</coef><coef idx="73">20</coef><coef idx="74">20</coef><coef idx="75">17</coef><coef idx="76">15</coef><coef idx="77">11</coef><coef idx="78">13</coef><coef idx="79">20</coef><coef idx="80">12</coef><coef idx="81">17</coef><coef idx="82">17</coef><coef idx="83">20</coef><coef idx="84">10</coef><coef idx="85">19</coef><coef idx="86">12</coef><coef idx="87">13</coef><coef idx="88">17</coef><coef idx="89">10</coef><coef idx="90">13</coef><coef idx="91">14</coef><coef idx="92">20</coef><coef idx="93">15</coef><coef idx="94">17</coef><coef idx="95">18</coef><coef idx="96">11</coef><coef idx="97">15</coef><coef idx="98">13</coef><coef idx="99">20</coef><coef idx="100">12</coef><coef idx="101">12</coef><coef idx="102">16</coef><coef idx="103">10</coef><coef idx="104">20</coef><coef idx="105">11</coef><coef idx="106">19</coef><coef idx="107">18</coef><coef idx="108">14</coef><coef idx="109">11</coef><coef idx="110">14</coef><coef idx="111">20</coef><coef idx="112">12</coef><coef idx="113">11</coef><coef idx="114">13</coef><coef idx="115">14</coef><coef idx="116">16</coef><coef idx="117">16</coef><coef idx="118">19</coef><coef idx="119">11</coef><coef idx="120">20</coef><coef idx="121">20</coef><coef idx="122">11</coef><coef idx="123">13</coef><coef idx="124">19</coef><coef idx="125">13</coef><coef idx="126">15</coef><coef idx="127">15</coef><coef idx="128">16</coef><coef idx="129">18</coef><coef idx="130">11</coef><coef idx="131">14</coef><coef idx="132">11</coef><coef idx="133">10</coef><coef idx="134">17</coef><coef idx="135">20</coef><coef idx="136">19</coef><coef idx="137">10</coef><coef idx="138">19</coef><coef idx="139">13</coef><coef idx="140">19</coef><coef idx="141">18</coef><coef idx="142">11</coef><coef idx="143">19</coef><coef idx="144">18</coef><coef idx="145">18</coef><coef idx="146">11</coef><coef idx="147">18</coef><coef idx="148">16</coef><coef idx="149">18</coef><coef idx="150">16</coef><coef idx="151">14</coef><coef idx="152">16</coef><coef idx="153">16</coef><coef idx="154">20</coef><coef idx="155">17</coef><coef idx="156">11</coef><coef idx="157">14</coef><coef idx="158">20</coef><coef idx="159">19</coef><coef idx="160">18</coef><coef idx="161">18</coef><coef idx="162">18</coef><coef idx="163">20</coef><coef idx="164">20</coef><coef idx="165">17</coef><coef idx="166">15</coef><coef idx="167">11</coef><coef idx="168">13</coef><coef idx="169">20</coef><coef idx="170">12</coef><coef idx="171">17</coef><coef idx="172">17</coef><coef idx="173">20</coef><coef idx="174">10</coef><coef idx="175">19</coef><coef idx="176">12</coef><coef idx="177">13</coef><coef idx="178">17</coef><coef idx="179">10</coef><coef idx="180">13</coef><coef idx="181">14</coef><coef idx="182">20</coef><coef idx="183">15</coef></obj></objectives><constraints numberOfConstraints="150"><con name="routeDistance(1)" lb="0" ub="0"/><con name="routeDistance(2)" lb="0" ub="0"/><con name="routeCapacity(1)" ub="25"/><con name="routeCapacity(2)" ub="25"/><con name="nodeAssign(1)" lb="1" ub="1"/><con name="nodeAssign(2)" lb="1" ub="1"/><con name="nodeAssign(3)" lb="1" ub="1"/><con name="nodeAssign(4)" lb="1" ub="1"/><con name="nodeAssign(5)" lb="1" ub="1"/><con name="nodeAssign(6)" lb="1" ub="1"/><con name="nodeAssign(7)" lb="1" ub="1"/><con name="nodeAssign(8)" lb="1" ub="1"/><con name="nodeAssign(9)" lb="1" ub="1"/><con name="nodeAssign(10)" lb="1" ub="1"/><con name="nodeAssignRoute(1)" lb="1" ub="1"/><con name="nodeAssignRoute(2)" lb="1" ub="1"/><con name="assignOUT(1,1)" lb="0" ub="0"/><con name="assignOUT(1,2)" lb="0" ub="0"/><con name="assignOUT(2,1)" lb="0" ub="0"/><con name="assignOUT(2,2)" lb="0" ub="0"/><con name="assignOUT(3,1)" lb="0" ub="0"/><con name="assignOUT(3,2)" lb="0" ub="0"/><con name="assignOUT(4,1)" lb="0" ub="0"/><con name="assignOUT(4,2)" lb="0" ub="0"/><con name="assignOUT(5,1)" lb="0" ub="0"/><con name="assignOUT(5,2)" lb="0" ub="0"/><con name="assignOUT(6,1)" lb="0" ub="0"/><con name="assignOUT(6,2)" lb="0" ub="0"/><con name="assignOUT(7,1)" lb="0" ub="0"/><con name="assignOUT(7,2)" lb="0" ub="0"/><con name="assignOUT(8,1)" lb="0" ub="0"/><con name="assignOUT(8,2)" lb="0" ub="0"/><con name="assignOUT(9,1)" lb="0" ub="0"/><con name="assignOUT(9,2)" lb="0" ub="0"/><con name="assignOUT(10,1)" lb="0" ub="0"/><con name="assignOUT(10,2)" lb="0" ub="0"/><con name="assignIN(1,1)" lb="0" ub="0"/><con name="assignIN(1,2)" lb="0" ub="0"/><con name="assignIN(2,1)" lb="0" ub="0"/><con name="assignIN(2,2)" lb="0" ub="0"/><con name="assignIN(3,1)" lb="0" ub="0"/><con name="assignIN(3,2)" lb="0" ub="0"/><con name="assignIN(4,1)" lb="0" ub="0"/><con name="assignIN(4,2)" lb="0" ub="0"/><con name="assignIN(5,1)" lb="0" ub="0"/><con name="assignIN(5,2)" lb="0" ub="0"/><con name="assignIN(6,1)" lb="0" ub="0"/><con name="assignIN(6,2)" lb="0" ub="0"/><con name="assignIN(7,1)" lb="0" ub="0"/><con name="assignIN(7,2)" lb="0" ub="0"/><con name="assignIN(8,1)" lb="0" ub="0"/><con name="assignIN(8,2)" lb="0" ub="0"/><con name="assignIN(9,1)" lb="0" ub="0"/><con name="assignIN(9,2)" lb="0" ub="0"/><con name="assignIN(10,1)" lb="0" ub="0"/><con name="assignIN(10,2)" lb="0" ub="0"/><con name="minNodes(1)" lb="3"/><con name="minNodes(2)" lb="3"/><con name="routeDemand(1)" lb="0" ub="0"/><con name="routeDemand(2)" lb="0" ub="0"/><con name="simpleCut(1,1,2)" ub="1"/><con name="simpleCut(1,1,3)" ub="1"/><con name="simpleCut(1,1,4)" ub="1"/><con name="simpleCut(1,1,5)" ub="1"/><con name="simpleCut(1,1,6)" ub="1"/><con name="simpleCut(1,1,7)" ub="1"/><con name="simpleCut(1,1,8)" ub="1"/><con name="simpleCut(1,1,9)" ub="1"/><con name="simpleCut(1,1,10)" ub="1"/><con name="simpleCut(1,2,3)" ub="1"/><con name="simpleCut(1,2,4)" ub="1"/><con name="simpleCut(1,2,5)" ub="1"/><con name="simpleCut(1,2,6)" ub="1"/><con name="simpleCut(1,2,7)" ub="1"/><con name="simpleCut(1,2,8)" ub="1"/><con name="simpleCut(1,2,9)" ub="1"/><con name="simpleCut(1,2,10)" ub="1"/><con name="simpleCut(1,3,4)" ub="1"/><con name="simpleCut(1,3,5)" ub="1"/><con name="simpleCut(1,3,6)" ub="1"/><con name="simpleCut(1,3,7)" ub="1"/><con name="simpleCut(1,3,8)" ub="1"/><con name="simpleCut(1,3,9)" ub="1"/><con name="simpleCut(1,3,10)" ub="1"/><con name="simpleCut(1,4,5)" ub="1"/><con name="simpleCut(1,4,6)" ub="1"/><con name="simpleCut(1,4,7)" ub="1"/><con name="simpleCut(1,4,8)" ub="1"/><con name="simpleCut(1,4,9)" ub="1"/><con name="simpleCut(1,4,10)" ub="1"/><con name="simpleCut(1,5,6)" ub="1"/><con name="simpleCut(1,5,7)" ub="1"/><con name="simpleCut(1,5,8)" ub="1"/><con name="simpleCut(1,5,9)" ub="1"/><con name="simpleCut(1,5,10)" ub="1"/><con name="simpleCut(1,6,7)" ub="1"/><con name="simpleCut(1,6,8)" ub="1"/><con name="simpleCut(1,6,9)" ub="1"/><con name="simpleCut(1,6,10)" ub="1"/><con name="simpleCut(1,7,8)" ub="1"/><con name="simpleCut(1,7,9)" ub="1"/><con name="simpleCut(1,7,10)" ub="1"/><con name="simpleCut(1,8,9)" ub="1"/><con name="simpleCut(1,8,10)" ub="1"/><con name="simpleCut(1,9,10)" ub="1"/><con name="simpleCut(2,1,2)" ub="1"/><con name="simpleCut(2,1,3)" ub="1"/><con name="simpleCut(2,1,4)" ub="1"/><con name="simpleCut(2,1,5)" ub="1"/><con name="simpleCut(2,1,6)" ub="1"/><con name="simpleCut(2,1,7)" ub="1"/><con name="simpleCut(2,1,8)" ub="1"/><con name="simpleCut(2,1,9)" ub="1"/><con name="simpleCut(2,1,10)" ub="1"/><con name="simpleCut(2,2,3)" ub="1"/><con name="simpleCut(2,2,4)" ub="1"/><con name="simpleCut(2,2,5)" ub="1"/><con name="simpleCut(2,2,6)" ub="1"/><con name="simpleCut(2,2,7)" ub="1"/><con name="simpleCut(2,2,8)" ub="1"/><con name="simpleCut(2,2,9)" ub="1"/><con name="simpleCut(2,2,10)" ub="1"/><con name="simpleCut(2,3,4)" ub="1"/><con name="simpleCut(2,3,5)" ub="1"/><con name="simpleCut(2,3,6)" ub="1"/><con name="simpleCut(2,3,7)" ub="1"/><con name="simpleCut(2,3,8)" ub="1"/><con name="simpleCut(2,3,9)" ub="1"/><con name="simpleCut(2,3,10)" ub="1"/><con name="simpleCut(2,4,5)" ub="1"/><con name="simpleCut(2,4,6)" ub="1"/><con name="simpleCut(2,4,7)" ub="1"/><con name="simpleCut(2,4,8)" ub="1"/><con name="simpleCut(2,4,9)" ub="1"/><con name="simpleCut(2,4,10)" ub="1"/><con name="simpleCut(2,5,6)" ub="1"/><con name="simpleCut(2,5,7)" ub="1"/><con name="simpleCut(2,5,8)" ub="1"/><con name="simpleCut(2,5,9)" ub="1"/><con name="simpleCut(2,5,10)" ub="1"/><con name="simpleCut(2,6,7)" ub="1"/><con name="simpleCut(2,6,8)" ub="1"/><con name="simpleCut(2,6,9)" ub="1"/><con name="simpleCut(2,6,10)" ub="1"/><con name="simpleCut(2,7,8)" ub="1"/><con name="simpleCut(2,7,9)" ub="1"/><con name="simpleCut(2,7,10)" ub="1"/><con name="simpleCut(2,8,9)" ub="1"/><con name="simpleCut(2,8,10)" ub="1"/><con name="simpleCut(2,9,10)" ub="1"/></constraints><linearConstraintCoefficients numberOfValues="834"><start><el>0</el><el>1</el><el>2</el><el>3</el><el>4</el><el>8</el><el>12</el><el>16</el><el>20</el><el>24</el><el>28</el><el>32</el><el>36</el><el>40</el><el>44</el><el>48</el><el>52</el><el>56</el><el>60</el><el>64</el><el>68</el><el>72</el><el>76</el><el>80</el><el>84</el><el>88</el><el>92</el><el>96</el><el>100</el><el>104</el><el>108</el><el>112</el><el>116</el><el>120</el><el>124</el><el>128</el><el>132</el><el>136</el><el>140</el><el>144</el><el>148</el><el>152</el><el>156</el><el>160</el><el>164</el><el>168</el><el>172</el><el>176</el><el>180</el><el>184</el><el>188</el><el>192</el><el>196</el><el>200</el><el>204</el><el>208</el><el>212</el><el>216</el><el>220</el><el>224</el><el>228</el><el>232</el><el>236</el><el>240</el><el>244</el><el>248</el><el>252</el><el>256</el><el>260</el><el>264</el><el>268</el><el>272</el><el>276</el><el>280</el><el>284</el><el>288</el><el>292</el><el>296</el><el>300</el><el>304</el><el>308</el><el>312</el><el>316</el><el>320</el><el>324</el><el>328</el><el>332</el><el>336</el><el>340</el><el>344</el><el>348</el><el>352</el><el>356</el><el>360</el><el>364</el><el>368</el><el>372</el><el>376</el><el>380</el><el>384</el><el>388</el><el>392</el><el>396</el><el>400</el><el>404</el><el>408</el><el>412</el><el>416</el><el>420</el><el>424</el><el>428</el><el>432</el><el>436</el><el>440</el><el>444</el><el>448</el><el>452</el><el>456</el><el>460</el><el>464</el><el>468</el><el>472</el><el>476</el><el>480</el><el>484</el><el>488</el><el>492</el><el>496</el><el>500</el><el>504</el><el>508</el><el>512</el><el>516</el><el>520</el><el>524</el><el>528</el><el>532</el><el>536</el><el>540</el><el>544</el><el>548</el><el>552</el><el>556</el><el>560</el><el>564</el><el>568</el><el>572</el><el>576</el><el>580</el><el>584</el><el>588</el><el>592</el><el>596</el><el>600</el><el>604</el><el>608</el><el>612</el><el>616</el><el>620</el><el>624</el><el>628</el><el>632</el><el>636</el><el>640</el><el>644</el><el>648</el><el>652</el><el>656</el><el>660</el><el>664</el><el>668</el><el>672</el><el>676</el><el>680</el><el>684</el><el>688</el><el>692</el><el>696</el><el>700</el><el>704</el><el>708</el><el>712</el><el>716</el><el>720</el><el>724</el><el>728</el><el>731</el><el>737</el><el>743</el><el>749</el><el>755</el><el>761</el><el>767</el><el>773</el><el>779</el><el>782</el><el>786</el><el>792</el><el>798</el><el>804</el><el>810</el><el>816</el><el>822</el><el>828</el><el>834</el></start><rowIdx><el>58</el><el>59</el><el>0</el><el>1</el><el>0</el><el>16</el><el>38</el><el>60</el><el>0</el><el>16</el><el>40</el><el>61</el><el>0</el><el>16</el><el>42</el><el>62</el><el>0</el><el>16</el><el>44</el><el>63</el><el>0</el><el>16</el><el>46</el><el>64</el><el>0</el><el>16</el><el>48</el><el>65</el><el>0</el><el>16</el><el>50</el><el>66</el><el>0</el><el>16</el><el>52</el><el>67</el><el>0</el><el>16</el><el>54</el><el>68</el><el>0</el><el>18</el><el>36</el><el>60</el><el>0</el><el>18</el><el>40</el><el>69</el><el>0</el><el>18</el><el>42</el><el>70</el><el>0</el><el>18</el><el>44</el><el>71</el><el>0</el><el>18</el><el>46</el><el>72</el><el>0</el><el>18</el><el>48</el><el>73</el><el>0</el><el>18</el><el>50</el><el>74</el><el>0</el><el>18</el><el>52</el><el>75</el><el>0</el><el>18</el><el>54</el><el>76</el><el>0</el><el>20</el><el>36</el><el>61</el><el>0</el><el>20</el><el>38</el><el>69</el><el>0</el><el>20</el><el>42</el><el>77</el><el>0</el><el>20</el><el>44</el><el>78</el><el>0</el><el>20</el><el>46</el><el>79</el><el>0</el><el>20</el><el>48</el><el>80</el><el>0</el><el>20</el><el>50</el><el>81</el><el>0</el><el>20</el><el>52</el><el>82</el><el>0</el><el>20</el><el>54</el><el>83</el><el>0</el><el>22</el><el>36</el><el>62</el><el>0</el><el>22</el><el>38</el><el>70</el><el>0</el><el>22</el><el>40</el><el>77</el><el>0</el><el>22</el><el>44</el><el>84</el><el>0</el><el>22</el><el>46</el><el>85</el><el>0</el><el>22</el><el>48</el><el>86</el><el>0</el><el>22</el><el>50</el><el>87</el><el>0</el><el>22</el><el>52</el><el>88</el><el>0</el><el>22</el><el>54</el><el>89</el><el>0</el><el>24</el><el>36</el><el>63</el><el>0</el><el>24</el><el>38</el><el>71</el><el>0</el><el>24</el><el>40</el><el>78</el><el>0</el><el>24</el><el>42</el><el>84</el><el>0</el><el>24</el><el>46</el><el>90</el><el>0</el><el>24</el><el>48</el><el>91</el><el>0</el><el>24</el><el>50</el><el>92</el><el>0</el><el>24</el><el>52</el><el>93</el><el>0</el><el>24</el><el>54</el><el>94</el><el>0</el><el>26</el><el>36</el><el>64</el><el>0</el><el>26</el><el>38</el><el>72</el><el>0</el><el>26</el><el>40</el><el>79</el><el>0</el><el>26</el><el>42</el><el>85</el><el>0</el><el>26</el><el>44</el><el>90</el><el>0</el><el>26</el><el>48</el><el>95</el><el>0</el><el>26</el><el>50</el><el>96</el><el>0</el><el>26</el><el>52</el><el>97</el><el>0</el><el>26</el><el>54</el><el>98</el><el>0</el><el>28</el><el>36</el><el>65</el><el>0</el><el>28</el><el>38</el><el>73</el><el>0</el><el>28</el><el>40</el><el>80</el><el>0</el><el>28</el><el>42</el><el>86</el><el>0</el><el>28</el><el>44</el><el>91</el><el>0</el><el>28</el><el>46</el><el>95</el><el>0</el><el>28</el><el>50</el><el>99</el><el>0</el><el>28</el><el>52</el><el>100</el><el>0</el><el>28</el><el>54</el><el>101</el><el>0</el><el>30</el><el>36</el><el>66</el><el>0</el><el>30</el><el>38</el><el>74</el><el>0</el><el>30</el><el>40</el><el>81</el><el>0</el><el>30</el><el>42</el><el>87</el><el>0</el><el>30</el><el>44</el><el>92</el><el>0</el><el>30</el><el>46</el><el>96</el><el>0</el><el>30</el><el>48</el><el>99</el><el>0</el><el>30</el><el>52</el><el>102</el><el>0</el><el>30</el><el>54</el><el>103</el><el>0</el><el>32</el><el>36</el><el>67</el><el>0</el><el>32</el><el>38</el><el>75</el><el>0</el><el>32</el><el>40</el><el>82</el><el>0</el><el>32</el><el>42</el><el>88</el><el>0</el><el>32</el><el>44</el><el>93</el><el>0</el><el>32</el><el>46</el><el>97</el><el>0</el><el>32</el><el>48</el><el>100</el><el>0</el><el>32</el><el>50</el><el>102</el><el>0</el><el>32</el><el>54</el><el>104</el><el>0</el><el>34</el><el>36</el><el>68</el><el>0</el><el>34</el><el>38</el><el>76</el><el>0</el><el>34</el><el>40</el><el>83</el><el>0</el><el>34</el><el>42</el><el>89</el><el>0</el><el>34</el><el>44</el><el>94</el><el>0</el><el>34</el><el>46</el><el>98</el><el>0</el><el>34</el><el>48</el><el>101</el><el>0</el><el>34</el><el>50</el><el>103</el><el>0</el><el>34</el><el>52</el><el>104</el><el>1</el><el>17</el><el>39</el><el>105</el><el>1</el><el>17</el><el>41</el><el>106</el><el>1</el><el>17</el><el>43</el><el>107</el><el>1</el><el>17</el><el>45</el><el>108</el><el>1</el><el>17</el><el>47</el><el>109</el><el>1</el><el>17</el><el>49</el><el>110</el><el>1</el><el>17</el><el>51</el><el>111</el><el>1</el><el>17</el><el>53</el><el>112</el><el>1</el><el>17</el><el>55</el><el>113</el><el>1</el><el>19</el><el>37</el><el>105</el><el>1</el><el>19</el><el>41</el><el>114</el><el>1</el><el>19</el><el>43</el><el>115</el><el>1</el><el>19</el><el>45</el><el>116</el><el>1</el><el>19</el><el>47</el><el>117</el><el>1</el><el>19</el><el>49</el><el>118</el><el>1</el><el>19</el><el>51</el><el>119</el><el>1</el><el>19</el><el>53</el><el>120</el><el>1</el><el>19</el><el>55</el><el>121</el><el>1</el><el>21</el><el>37</el><el>106</el><el>1</el><el>21</el><el>39</el><el>114</el><el>1</el><el>21</el><el>43</el><el>122</el><el>1</el><el>21</el><el>45</el><el>123</el><el>1</el><el>21</el><el>47</el><el>124</el><el>1</el><el>21</el><el>49</el><el>125</el><el>1</el><el>21</el><el>51</el><el>126</el><el>1</el><el>21</el><el>53</el><el>127</el><el>1</el><el>21</el><el>55</el><el>128</el><el>1</el><el>23</el><el>37</el><el>107</el><el>1</el><el>23</el><el>39</el><el>115</el><el>1</el><el>23</el><el>41</el><el>122</el><el>1</el><el>23</el><el>45</el><el>129</el><el>1</el><el>23</el><el>47</el><el>130</el><el>1</el><el>23</el><el>49</el><el>131</el><el>1</el><el>23</el><el>51</el><el>132</el><el>1</el><el>23</el><el>53</el><el>133</el><el>1</el><el>23</el><el>55</el><el>134</el><el>1</el><el>25</el><el>37</el><el>108</el><el>1</el><el>25</el><el>39</el><el>116</el><el>1</el><el>25</el><el>41</el><el>123</el><el>1</el><el>25</el><el>43</el><el>129</el><el>1</el><el>25</el><el>47</el><el>135</el><el>1</el><el>25</el><el>49</el><el>136</el><el>1</el><el>25</el><el>51</el><el>137</el><el>1</el><el>25</el><el>53</el><el>138</el><el>1</el><el>25</el><el>55</el><el>139</el><el>1</el><el>27</el><el>37</el><el>109</el><el>1</el><el>27</el><el>39</el><el>117</el><el>1</el><el>27</el><el>41</el><el>124</el><el>1</el><el>27</el><el>43</el><el>130</el><el>1</el><el>27</el><el>45</el><el>135</el><el>1</el><el>27</el><el>49</el><el>140</el><el>1</el><el>27</el><el>51</el><el>141</el><el>1</el><el>27</el><el>53</el><el>142</el><el>1</el><el>27</el><el>55</el><el>143</el><el>1</el><el>29</el><el>37</el><el>110</el><el>1</el><el>29</el><el>39</el><el>118</el><el>1</el><el>29</el><el>41</el><el>125</el><el>1</el><el>29</el><el>43</el><el>131</el><el>1</el><el>29</el><el>45</el><el>136</el><el>1</el><el>29</el><el>47</el><el>140</el><el>1</el><el>29</el><el>51</el><el>144</el><el>1</el><el>29</el><el>53</el><el>145</el><el>1</el><el>29</el><el>55</el><el>146</el><el>1</el><el>31</el><el>37</el><el>111</el><el>1</el><el>31</el><el>39</el><el>119</el><el>1</el><el>31</el><el>41</el><el>126</el><el>1</el><el>31</el><el>43</el><el>132</el><el>1</el><el>31</el><el>45</el><el>137</el><el>1</el><el>31</el><el>47</el><el>141</el><el>1</el><el>31</el><el>49</el><el>144</el><el>1</el><el>31</el><el>53</el><el>147</el><el>1</el><el>31</el><el>55</el><el>148</el><el>1</el><el>33</el><el>37</el><el>112</el><el>1</el><el>33</el><el>39</el><el>120</el><el>1</el><el>33</el><el>41</el><el>127</el><el>1</el><el>33</el><el>43</el><el>133</el><el>1</el><el>33</el><el>45</el><el>138</el><el>1</el><el>33</el><el>47</el><el>142</el><el>1</el><el>33</el><el>49</el><el>145</el><el>1</el><el>33</el><el>51</el><el>147</el><el>1</el><el>33</el><el>55</el><el>149</el><el>1</el><el>35</el><el>37</el><el>113</el><el>1</el><el>35</el><el>39</el><el>121</el><el>1</el><el>35</el><el>41</el><el>128</el><el>1</el><el>35</el><el>43</el><el>134</el><el>1</el><el>35</el><el>45</el><el>139</el><el>1</el><el>35</el><el>47</el><el>143</el><el>1</el><el>35</el><el>49</el><el>146</el><el>1</el><el>35</el><el>51</el><el>148</el><el>1</el><el>35</el><el>53</el><el>149</el><el>4</el><el>14</el><el>16</el><el>36</el><el>5</el><el>18</el><el>38</el><el>2</el><el>6</el><el>20</el><el>40</el><el>56</el><el>58</el><el>2</el><el>7</el><el>22</el><el>42</el><el>56</el><el>58</el><el>2</el><el>8</el><el>24</el><el>44</el><el>56</el><el>58</el><el>2</el><el>9</el><el>26</el><el>46</el><el>56</el><el>58</el><el>2</el><el>10</el><el>28</el><el>48</el><el>56</el><el>58</el><el>2</el><el>11</el><el>30</el><el>50</el><el>56</el><el>58</el><el>2</el><el>12</el><el>32</el><el>52</el><el>56</el><el>58</el><el>2</el><el>13</el><el>34</el><el>54</el><el>56</el><el>58</el><el>4</el><el>17</el><el>37</el><el>5</el><el>15</el><el>19</el><el>39</el><el>3</el><el>6</el><el>21</el><el>41</el><el>57</el><el>59</el><el>3</el><el>7</el><el>23</el><el>43</el><el>57</el><el>59</el><el>3</el><el>8</el><el>25</el><el>45</el><el>57</el><el>59</el><el>3</el><el>9</el><el>27</el><el>47</el><el>57</el><el>59</el><el>3</el><el>10</el><el>29</el><el>49</el><el>57</el><el>59</el><el>3</el><el>11</el><el>31</el><el>51</el><el>57</el><el>59</el><el>3</el><el>12</el><el>33</el><el>53</el><el>57</el><el>59</el><el>3</el><el>13</el><el>35</el><el>55</el><el>57</el><el>59</el></rowIdx><value><el>1</el><el>1</el><el>1</el><el>1</el><el>-17</el><el>1</el><el>1</el><el>1</el><el>-18</el><el>1</el><el>1</el><el>1</el><el>-11</el><el>1</el><el>1</el><el>1</el><el>-15</el><el>1</el><el>1</el><el>1</el><el>-13</el><el>1</el><el>1</el><el>1</el><el>-20</el><el>1</el><el>1</el><el>1</el><el>-12</el><el>1</el><el>1</el><el>1</el><el>-12</el><el>1</el><el>1</el><el>1</el><el>-16</el><el>1</el><el>1</el><el>1</el><el>-10</el><el>1</el><el>1</el><el>1</el><el>-20</el><el>1</el><el>1</el><el>1</el><el>-11</el><el>1</el><el>1</el><el>1</el><el>-19</el><el>1</el><el>1</el><el>1</el><el>-18</el><el>1</el><el>1</el><el>1</el><el>-14</el><el>1</el><el>1</el><el>1</el><el>-11</el><el>1</el><el>1</el><el>1</el><el>-14</el><el>1</el><el>1</el><el>1</el><el>-20</el><el>1</el><el>1</el><el>1</el><el>-12</el><el>1</el><el>1</el><el>1</el><el>-11</el><el>1</el><el>1</el><el>1</el><el>-13</el><el>1</el><el>1</el><el>1</el><el>-14</el><el>1</el><el>1</el><el>1</el><el>-16</el><el>1</el><el>1</el><el>1</el><el>-16</el><el>1</el><el>1</el><el>1</el><el>-19</el><el>1</el><el>1</el><el>1</el><el>-11</el><el>1</el><el>1</el><el>1</el><el>-20</el><el>1</el><el>1</el><el>1</el><el>-20</el><el>1</el><el>1</el><el>1</el><el>-11</el><el>1</el><el>1</el><el>1</el><el>-13</el><el>1</el><el>1</el><el>1</el><el>-19</el><el>1</el><el>1</el><el>1</el><el>-13</el><el>1</el><el>1</el><el>1</el><el>-15</el><el>1</el><el>1</el><el>1</el><el>-15</el><el>1</el><el>1</el><el>1</el><el>-16</el><el>1</el><el>1</el><el>1</el><el>-18</el><el>1</el><el>1</el><el>1</el><el>-11</el><el>1</el><el>1</el><el>1</el><el>-14</el><el>1</el><el>1</el><el>1</el><el>-11</el><el>1</el><el>1</el><el>1</el><el>-10</el><el>1</el><el>1</el><el>1</el><el>-17</el><el>1</el><el>1</el><el>1</el><el>-20</el><el>1</el><el>1</el><el>1</el><el>-19</el><el>1</el><el>1</el><el>1</el><el>-10</el><el>1</el><el>1</el><el>1</el><el>-19</el><el>1</el><el>1</el><el>1</el><el>-13</el><el>1</el><el>1</el><el>1</el><el>-19</el><el>1</el><el>1</el><el>1</el><el>-18</el><el>1</el><el>1</el><el>1</el><el>-11</el><el>1</el><el>1</el><el>1</el><el>-19</el><el>1</el><el>1</el><el>1</el><el>-18</el><el>1</el><el>1</el><el>1</el><el>-18</el><el>1</el><el>1</el><el>1</el><el>-11</el><el>1</el><el>1</el><el>1</el><el>-18</el><el>1</el><el>1</el><el>1</el><el>-16</el><el>1</el><el>1</el><el>1</el><el>-18</el><el>1</el><el>1</el><el>1</el><el>-16</el><el>1</el><el>1</el><el>1</el><el>-14</el><el>1</el><el>1</el><el>1</el><el>-16</el><el>1</el><el>1</el><el>1</el><el>-16</el><el>1</el><el>1</el><el>1</el><el>-20</el><el>1</el><el>1</el><el>1</el><el>-17</el><el>1</el><el>1</el><el>1</el><el>-11</el><el>1</el><el>1</el><el>1</el><el>-14</el><el>1</el><el>1</el><el>1</el><el>-20</el><el>1</el><el>1</el><el>1</el><el>-19</el><el>1</el><el>1</el><el>1</el><el>-18</el><el>1</el><el>1</el><el>1</el><el>-18</el><el>1</el><el>1</el><el>1</el><el>-18</el><el>1</el><el>1</el><el>1</el><el>-20</el><el>1</el><el>1</el><el>1</el><el>-20</el><el>1</el><el>1</el><el>1</el><el>-17</el><el>1</el><el>1</el><el>1</el><el>-15</el><el>1</el><el>1</el><el>1</el><el>-11</el><el>1</el><el>1</el><el>1</el><el>-13</el><el>1</el><el>1</el><el>1</el><el>-20</el><el>1</el><el>1</el><el>1</el><el>-12</el><el>1</el><el>1</el><el>1</el><el>-17</el><el>1</el><el>1</el><el>1</el><el>-17</el><el>1</el><el>1</el><el>1</el><el>-20</el><el>1</el><el>1</el><el>1</el><el>-10</el><el>1</el><el>1</el><el>1</el><el>-19</el><el>1</el><el>1</el><el>1</el><el>-12</el><el>1</el><el>1</el><el>1</el><el>-13</el><el>1</el><el>1</el><el>1</el><el>-17</el><el>1</el><el>1</el><el>1</el><el>-10</el><el>1</el><el>1</el><el>1</el><el>-13</el><el>1</el><el>1</el><el>1</el><el>-14</el><el>1</el><el>1</el><el>1</el><el>-20</el><el>1</el><el>1</el><el>1</el><el>-15</el><el>1</el><el>1</el><el>1</el><el>-17</el><el>1</el><el>1</el><el>1</el><el>-18</el><el>1</el><el>1</el><el>1</el><el>-11</el><el>1</el><el>1</el><el>1</el><el>-15</el><el>1</el><el>1</el><el>1</el><el>-13</el><el>1</el><el>1</el><el>1</el><el>-20</el><el>1</el><el>1</el><el>1</el><el>-12</el><el>1</el><el>1</el><el>1</el><el>-12</el><el>1</el><el>1</el><el>1</el><el>-16</el><el>1</el><el>1</el><el>1</el><el>-10</el><el>1</el><el>1</el><el>1</el><el>-20</el><el>1</el><el>1</el><el>1</el><el>-11</el><el>1</el><el>1</el><el>1</el><el>-19</el><el>1</el><el>1</el><el>1</el><el>-18</el><el>1</el><el>1</el><el>1</el><el>-14</el><el>1</el><el>1</el><el>1</el><el>-11</el><el>1</el><el>1</el><el>1</el><el>-14</el><el>1</el><el>1</el><el>1</el><el>-20</el><el>1</el><el>1</el><el>1</el><el>-12</el><el>1</el><el>1</el><el>1</el><el>-11</el><el>1</el><el>1</el><el>1</el><el>-13</el><el>1</el><el>1</el><el>1</el><el>-14</el><el>1</el><el>1</el><el>1</el><el>-16</el><el>1</el><el>1</el><el>1</el><el>-16</el><el>1</el><el>1</el><el>1</el><el>-19</el><el>1</el><el>1</el><el>1</el><el>-11</el><el>1</el><el>1</el><el>1</el><el>-20</el><el>1</el><el>1</el><el>1</el><el>-20</el><el>1</el><el>1</el><el>1</el><el>-11</el><el>1</el><el>1</el><el>1</el><el>-13</el><el>1</el><el>1</el><el>1</el><el>-19</el><el>1</el><el>1</el><el>1</el><el>-13</el><el>1</el><el>1</el><el>1</el><el>-15</el><el>1</el><el>1</el><el>1</el><el>-15</el><el>1</el><el>1</el><el>1</el><el>-16</el><el>1</el><el>1</el><el>1</el><el>-18</el><el>1</el><el>1</el><el>1</el><el>-11</el><el>1</el><el>1</el><el>1</el><el>-14</el><el>1</el><el>1</el><el>1</el><el>-11</el><el>1</el><el>1</el><el>1</el><el>-10</el><el>1</el><el>1</el><el>1</el><el>-17</el><el>1</el><el>1</el><el>1</el><el>-20</el><el>1</el><el>1</el><el>1</el><el>-19</el><el>1</el><el>1</el><el>1</el><el>-10</el><el>1</el><el>1</el><el>1</el><el>-19</el><el>1</el><el>1</el><el>1</el><el>-13</el><el>1</el><el>1</el><el>1</el><el>-19</el><el>1</el><el>1</el><el>1</el><el>-18</el><el>1</el><el>1</el><el>1</el><el>-11</el><el>1</el><el>1</el><el>1</el><el>-19</el><el>1</el><el>1</el><el>1</el><el>-18</el><el>1</el><el>1</el><el>1</el><el>-18</el><el>1</el><el>1</el><el>1</el><el>-11</el><el>1</el><el>1</el><el>1</el><el>-18</el><el>1</el><el>1</el><el>1</el><el>-16</el><el>1</el><el>1</el><el>1</el><el>-18</el><el>1</el><el>1</el><el>1</el><el>-16</el><el>1</el><el>1</el><el>1</el><el>-14</el><el>1</el><el>1</el><el>1</el><el>-16</el><el>1</el><el>1</el><el>1</el><el>-16</el><el>1</el><el>1</el><el>1</el><el>-20</el><el>1</el><el>1</el><el>1</el><el>-17</el><el>1</el><el>1</el><el>1</el><el>-11</el><el>1</el><el>1</el><el>1</el><el>-14</el><el>1</el><el>1</el><el>1</el><el>-20</el><el>1</el><el>1</el><el>1</el><el>-19</el><el>1</el><el>1</el><el>1</el><el>-18</el><el>1</el><el>1</el><el>1</el><el>-18</el><el>1</el><el>1</el><el>1</el><el>-18</el><el>1</el><el>1</el><el>1</el><el>-20</el><el>1</el><el>1</el><el>1</el><el>-20</el><el>1</el><el>1</el><el>1</el><el>-17</el><el>1</el><el>1</el><el>1</el><el>-15</el><el>1</el><el>1</el><el>1</el><el>-11</el><el>1</el><el>1</el><el>1</el><el>-13</el><el>1</el><el>1</el><el>1</el><el>-20</el><el>1</el><el>1</el><el>1</el><el>-12</el><el>1</el><el>1</el><el>1</el><el>-17</el><el>1</el><el>1</el><el>1</el><el>-17</el><el>1</el><el>1</el><el>1</el><el>-20</el><el>1</el><el>1</el><el>1</el><el>-10</el><el>1</el><el>1</el><el>1</el><el>-19</el><el>1</el><el>1</el><el>1</el><el>-12</el><el>1</el><el>1</el><el>1</el><el>-13</el><el>1</el><el>1</el><el>1</el><el>-17</el><el>1</el><el>1</el><el>1</el><el>-10</el><el>1</el><el>1</el><el>1</el><el>-13</el><el>1</el><el>1</el><el>1</el><el>-14</el><el>1</el><el>1</el><el>1</el><el>-20</el><el>1</el><el>1</el><el>1</el><el>-15</el><el>1</el><el>1</el><el>1</el><el>1</el><el>1</el><el>-1</el><el>-1</el><el>1</el><el>-1</el><el>-1</el><el>1</el><el>1</el><el>-1</el><el>-1</el><el>1</el><el>-1</el><el>1</el><el>1</el><el>-1</el><el>-1</el><el>1</el><el>-1</el><el>1</el><el>1</el><el>-1</el><el>-1</el><el>1</el><el>-1</el><el>1</el><el>1</el><el>-1</el><el>-1</el><el>1</el><el>-1</el><el>1</el><el>1</el><el>-1</el><el>-1</el><el>1</el><el>-1</el><el>1</el><el>1</el><el>-1</el><el>-1</el><el>1</el><el>-1</el><el>1</el><el>1</el><el>-1</el><el>-1</el><el>1</el><el>-1</el><el>1</el><el>1</el><el>-1</el><el>-1</el><el>1</el><el>-1</el><el>1</el><el>-1</el><el>-1</el><el>1</el><el>1</el><el>-1</el><el>-1</el><el>1</el><el>1</el><el>-1</el><el>-1</el><el>1</el><el>-1</el><el>1</el><el>1</el><el>-1</el><el>-1</el><el>1</el><el>-1</el><el>1</el><el>1</el><el>-1</el><el>-1</el><el>1</el><el>-1</el><el>1</el><el>1</el><el>-1</el><el>-1</el><el>1</el><el>-1</el><el>1</el><el>1</el><el>-1</el><el>-1</el><el>1</el><el>-1</el><el>1</el><el>1</el><el>-1</el><el>-1</el><el>1</el><el>-1</el><el>1</el><el>1</el><el>-1</el><el>-1</el><el>1</el><el>-1</el><el>1</el><el>1</el><el>-1</el><el>-1</el><el>1</el><el>-1</el></value></linearConstraintCoefficients></instanceData></osil>
